; Copyright (c) 2026 The RIINA Authors. All rights reserved.
; Copyright (c) 2026 The RIINA Authors.
; Auto-generated from 02_FORMAL/coq/domains/SpeculativeExecution.v (20 assertions)
; Generated by scripts/generate-full-stack.py
; Module: SpeculativeExecution

(set-logic ALL)
(set-option :produce-models true)

; effect (matches Coq: Inductive effect)
(declare-datatypes ((effect 0)) (((Eff_pure) (Eff_timed))))

; visibility (matches Coq: Inductive visibility)
(declare-datatypes ((visibility 0)) (((Public) (Secret))))

; value (matches Coq: Inductive value)
(declare-datatypes ((value 0)) (((VNat) (VBool))))

; instr (matches Coq: Inductive instr)
(declare-datatypes ((instr 0)) (((IConst) (IBinop) (IBranch) (ISeq) (IAnnot))))

; eff_le (matches Coq: Definition eff_le)
(define-fun eff_le () Bool true)

; eff_join (matches Coq: Definition eff_join)
(define-fun eff_join () effect true)

; is_spec_safe (matches Coq: Definition is_spec_safe)
(define-fun is_spec_safe ((i instr)) Bool
  true)

; eff_join_pure_l (matches Coq: Lemma eff_join_pure_l)
(assert (= true true)) ; eff_join_pure_l [untranslatable]

; eff_join_pure_r (matches Coq: Lemma eff_join_pure_r)
(assert (= true true)) ; eff_join_pure_r [untranslatable]

; eff_le_refl (matches Coq: Lemma eff_le_refl)
(assert (= true true)) ; eff_le_refl [untranslatable]

; eff_le_trans (matches Coq: Lemma eff_le_trans)
(assert (= true true)) ; eff_le_trans [untranslatable]

; 1 (matches Coq: Theorem 1)
(assert (= true true)) ; 1 [untranslatable]

; 2 (matches Coq: Theorem 2)
(assert (= true true)) ; 2 [untranslatable]

; 3 (matches Coq: Theorem 3)
(assert (= true true)) ; 3 [untranslatable]

; spec_safe_no_secret_branch_aux (matches Coq: Lemma spec_safe_no_secret_branch_aux)
(assert (= true true)) ; spec_safe_no_secret_branch_aux [untranslatable]

; spec_safe_implies_no_secret_leakage (matches Coq: Theorem spec_safe_implies_no_secret_leakage)
(assert (= true true)) ; spec_safe_implies_no_secret_leakage [untranslatable]

; 4 (matches Coq: Theorem 4)
(assert (= true true)) ; 4 [untranslatable]

; effect_preorder_trans (matches Coq: Theorem effect_preorder_trans)
(assert (= true true)) ; effect_preorder_trans [untranslatable]

; 5 (matches Coq: Theorem 5)
(assert (= true true)) ; 5 [untranslatable]

; 6 (matches Coq: Theorem 6)
(assert (= true true)) ; 6 [untranslatable]

; 7 (matches Coq: Theorem 7)
(assert (= true true)) ; 7 [untranslatable]

; 8 (matches Coq: Theorem 8)
(assert (= true true)) ; 8 [untranslatable]

; binop_preserves_ct (matches Coq: Theorem binop_preserves_ct)
(assert (= true true)) ; binop_preserves_ct [untranslatable]

; pure_implies_spec_safe (matches Coq: Theorem pure_implies_spec_safe)
(assert (= true true)) ; pure_implies_spec_safe [untranslatable]

; 11 (matches Coq: Theorem 11)
(assert (= true true)) ; 11 [untranslatable]

; 12 (matches Coq: Theorem 12)
(assert (= true true)) ; 12 [untranslatable]

; 13 (matches Coq: Theorem 13)
(assert (= true true)) ; 13 [untranslatable]

; Verify all assertions are satisfiable
(check-sat)
(exit)
